letting n =  10
letting blocks =  [[1, 1], [1, 5], [1, 6], [1, 7], [2, 1], [2, 2], [2, 3], [2, 4], [2, 6], [2, 9], [3, 8], [4, 2], [4, 7], [4, 10], [5, 2], [5, 5], [5, 6], [5, 7], [5, 9], [5, 10], [6, 1], [6, 2], [6, 3], [6, 8], [6, 9], [7, 3], [7, 6], [7, 10], [8, 1], [8, 5], [8, 6], [8, 7], [8, 8], [8, 10], [9, 3], [9, 4], [9, 6], [9, 8], [9, 9], [9, 10], [10, 1], [10, 5], [10, 9], [10, 10]]
